c FILE /home/rafael/Documents/HappySet/MIHS/inputs/happygen/output/graph_d_regular_k10_p0.4_v100_20241127_084118.txt
c SOURCE This is a d-regular graph formed for the happy graph colouring problem.
c DESCRIPTION It was generated using the problem generator of Rhyd Lewis
c
c GRAPH STATS
c Seed                             = 450361720
c Number of Nodes                  = 100
c Number of colours k              = 10
c Number of pre-assignments        = 40
c Degree of all vertices           = 6
c Density                          = 0.0606061
c 
c The degrees of nodes 1 to 100, respectively, are as follows 
c [6, 6, 6, 6, 6, 6, 6, 6, 6, 6, 6, 6, 6, 6, 6, 6, 6, 6, 6, 6, 6, 6, 6, 6, 6, 6, 
c  6, 6, 6, 6, 6, 6, 6, 6, 6, 6, 6, 6, 6, 6, 6, 6, 6, 6, 6, 6, 6, 6, 6, 6, 6, 
c  6, 6, 6, 6, 6, 6, 6, 6, 6, 6, 6, 6, 6, 6, 6, 6, 6, 6, 6, 6, 6, 6, 6, 6, 6, 
c  6, 6, 6, 6, 6, 6, 6, 6, 6, 6, 6, 6, 6, 6, 6, 6, 6, 6, 6, 6, 6, 6, 6, 6] 
c  
p edge 100 300 10
e 1 2
e 1 12
e 1 18
e 1 57
e 1 69
e 1 91
e 2 12
e 2 21
e 2 40
e 2 44
e 2 63
e 3 7
e 3 21
e 3 36
e 3 50
e 3 62
e 3 92
e 4 11
e 4 42
e 4 61
e 4 76
e 4 82
e 4 95
e 5 16
e 5 41
e 5 42
e 5 52
e 5 81
e 5 83
e 6 22
e 6 26
e 6 55
e 6 70
e 6 87
e 6 92
e 7 17
e 7 45
e 7 55
e 7 61
e 7 77
e 8 27
e 8 52
e 8 66
e 8 75
e 8 76
e 8 93
e 9 11
e 9 14
e 9 23
e 9 46
e 9 74
e 9 80
e 10 16
e 10 39
e 10 72
e 10 75
e 10 80
e 10 90
e 11 30
e 11 52
e 11 71
e 11 98
e 12 27
e 12 37
e 12 69
e 12 99
e 13 20
e 13 22
e 13 48
e 13 49
e 13 74
e 13 95
e 14 29
e 14 57
e 14 75
e 14 95
e 14 99
e 15 24
e 15 43
e 15 49
e 15 60
e 15 73
e 15 85
e 16 40
e 16 58
e 16 79
e 16 93
e 17 37
e 17 40
e 17 48
e 17 54
e 17 79
e 18 19
e 18 53
e 18 64
e 18 68
e 18 84
e 19 38
e 19 39
e 19 47
e 19 53
e 19 67
e 20 41
e 20 51
e 20 68
e 20 69
e 20 72
e 21 62
e 21 72
e 21 81
e 21 88
e 22 32
e 22 43
e 22 76
e 22 96
e 23 53
e 23 56
e 23 63
e 23 81
e 23 85
e 24 35
e 24 62
e 24 77
e 24 92
e 24 96
e 25 42
e 25 53
e 25 69
e 25 77
e 25 92
e 25 96
e 26 38
e 26 63
e 26 88
e 26 92
e 26 96
e 27 29
e 27 46
e 27 59
e 27 88
e 28 51
e 28 56
e 28 66
e 28 82
e 28 89
e 28 94
e 29 31
e 29 42
e 29 77
e 29 81
e 30 45
e 30 48
e 30 55
e 30 70
e 30 98
e 31 38
e 31 43
e 31 49
e 31 71
e 31 95
e 32 33
e 32 43
e 32 47
e 32 64
e 32 71
e 33 38
e 33 52
e 33 65
e 33 70
e 33 91
e 34 35
e 34 43
e 34 63
e 34 73
e 34 89
e 34 94
e 35 36
e 35 46
e 35 56
e 35 83
e 36 37
e 36 44
e 36 58
e 36 89
e 37 49
e 37 78
e 37 97
e 38 44
e 38 71
e 39 42
e 39 63
e 39 94
e 39 98
e 40 45
e 40 51
e 40 93
e 41 47
e 41 84
e 41 90
e 41 96
e 42 61
e 43 97
e 44 64
e 44 93
e 44 95
e 45 67
e 45 83
e 45 90
e 46 66
e 46 87
e 46 100
e 47 58
e 47 60
e 47 67
e 48 65
e 48 66
e 48 82
e 49 57
e 49 67
e 50 54
e 50 61
e 50 69
e 50 86
e 50 98
e 51 65
e 51 75
e 51 86
e 52 60
e 52 90
e 53 72
e 53 100
e 54 58
e 54 59
e 54 64
e 54 74
e 55 58
e 55 80
e 55 97
e 56 57
e 56 76
e 56 87
e 57 76
e 57 97
e 58 97
e 59 62
e 59 86
e 59 89
e 59 90
e 60 61
e 60 62
e 60 86
e 61 64
e 62 64
e 63 80
e 65 73
e 65 80
e 65 84
e 66 88
e 66 93
e 67 68
e 67 87
e 68 72
e 68 79
e 68 100
e 69 97
e 70 71
e 70 73
e 70 91
e 71 81
e 72 92
e 73 74
e 73 96
e 74 83
e 74 86
e 75 78
e 75 89
e 76 94
e 77 78
e 77 91
e 78 82
e 78 84
e 78 91
e 79 81
e 79 89
e 79 94
e 80 99
e 82 85
e 82 87
e 83 84
e 83 99
e 84 100
e 85 90
e 85 98
e 85 99
e 86 88
e 87 88
e 91 100
e 93 98
e 94 95
e 99 100
n 1 5
n 3 1
n 4 3
n 9 5
n 15 2
n 16 6
n 19 10
n 20 1
n 21 1
n 22 7
n 25 7
n 29 7
n 35 2
n 37 2
n 38 10
n 45 4
n 47 10
n 48 1
n 49 2
n 52 5
n 54 4
n 55 6
n 56 2
n 59 4
n 61 3
n 63 8
n 65 1
n 66 1
n 70 10
n 71 10
n 75 9
n 77 7
n 79 6
n 84 1
n 85 2
n 86 4
n 95 3
n 96 7
n 98 2
n 100 1
